NAME : portgen-24-8
COMMENT : portgen N=24, seed=8
TYPE : TSP
DIMENSION : 24
EDGE_WEIGHT_TYPE : EUC_2D
NODE_COORD_SECTION
1 602886 524197
2 101777 952204
3 785998 787527
4 397021 231954
5 506509 174219
6 868316 19725
7 106980 222733
8 731596 567481
9 299133 313307
10 312064 29332
11 55073 165948
12 945304 280528
13 195368 197107
14 113615 292047
15 229041 735237
16 718150 223352
17 657144 101328
18 764579 862804
19 971508 727471
20 933889 665420
21 154510 734147
22 108443 745336
23 961575 508152
24 20849 435401
